language Essence 1.3

letting blksize_delta be function(1 --> 4, 2 --> 4, 3 --> 4, 4 --> 4, 5 --> 4, 6 --> 4, 7 --> 4, 8 --> 4)
letting maxcars be function(1 --> 10, 2 --> 6, 3 --> 10, 4 --> 10, 5 --> 10, 6 --> 10, 7 --> 10, 8 --> 10)
letting n_cars be 144
letting n_classes be 2
letting n_options be 8
letting quantity be function(1 --> 79, 2 --> 65)
letting usage be relation((1, 1), (1, 2), (1, 3), (1, 4), (1, 6), (1, 7), (2, 5), (2, 8))
$ Visualisation for usage
$ 1 1
$ 1 2
$ 1 3
$ 1 4
$ 1 6
$ 1 7
$ 2 5
$ 2 8

